job_count = 14 ;
duration = [|6, 4|8, 1|6, 9|8, 5|15, 3|19, 3|7, 5|8, 1|17, 6|12, 6|14, 8|13, 2|7, 6|11, 4|] ;
machine_count = 2 ;
cost = [|16, 29|11, 34|18, 24|15, 24|17, 20|15, 27|11, 25|11, 24|16, 35|12, 35|17, 24|13, 35|13, 37|17, 27|] ;
deadline = [35, 35, 35, 35, 35, 35, 35, 35, 35, 35, 35, 35, 35, 35] ;
release = [0, 0, 0, 0, 0, 0, 0, 0, 0, 0, 0, 0, 0, 0] ;
resource = [|7, 7|7, 7|7, 7|2, 2|7, 7|2, 2|1, 1|8, 8|5, 5|7, 7|1, 1|7, 7|3, 3|8, 8|] ;
capacities = [10, 10] ;
